(set-info :smt-lib-version 2.6)
(set-logic QF_UFLRA)
(set-info :source |
MathSat group

|)
(set-info :category "random")
(set-info :status sat)
(declare-fun f0_1 (Real) Real)
(declare-fun f0_2 (Real Real) Real)
(declare-fun f0_3 (Real Real Real) Real)
(declare-fun f0_4 (Real Real Real Real) Real)
(declare-fun f1_1 (Real) Real)
(declare-fun f1_2 (Real Real) Real)
(declare-fun f1_3 (Real Real Real) Real)
(declare-fun f1_4 (Real Real Real Real) Real)
(declare-fun x0 () Real)
(declare-fun x1 () Real)
(declare-fun x2 () Real)
(declare-fun x3 () Real)
(declare-fun x4 () Real)
(declare-fun x5 () Real)
(declare-fun x6 () Real)
(declare-fun x7 () Real)
(declare-fun x8 () Real)
(declare-fun x9 () Real)
(declare-fun x10 () Real)
(declare-fun x11 () Real)
(declare-fun x12 () Real)
(declare-fun x13 () Real)
(declare-fun x14 () Real)
(declare-fun x15 () Real)
(declare-fun x16 () Real)
(declare-fun x17 () Real)
(declare-fun x18 () Real)
(declare-fun x19 () Real)
(declare-fun x20 () Real)
(declare-fun x21 () Real)
(declare-fun x22 () Real)
(declare-fun x23 () Real)
(declare-fun x24 () Real)
(declare-fun x25 () Real)
(declare-fun x26 () Real)
(declare-fun x27 () Real)
(declare-fun x28 () Real)
(declare-fun x29 () Real)
(declare-fun x30 () Real)
(declare-fun x31 () Real)
(declare-fun x32 () Real)
(declare-fun x33 () Real)
(declare-fun x34 () Real)
(declare-fun x35 () Real)
(declare-fun x36 () Real)
(declare-fun x37 () Real)
(declare-fun x38 () Real)
(declare-fun x39 () Real)
(declare-fun P0 () Bool)
(declare-fun P1 () Bool)
(declare-fun P2 () Bool)
(declare-fun P3 () Bool)
(declare-fun P4 () Bool)
(declare-fun P5 () Bool)
(declare-fun P6 () Bool)
(declare-fun P7 () Bool)
(declare-fun P8 () Bool)
(declare-fun P9 () Bool)
(declare-fun P10 () Bool)
(declare-fun P11 () Bool)
(declare-fun P12 () Bool)
(declare-fun P13 () Bool)
(declare-fun P14 () Bool)
(declare-fun P15 () Bool)
(declare-fun P16 () Bool)
(declare-fun P17 () Bool)
(declare-fun P18 () Bool)
(declare-fun P19 () Bool)
(declare-fun P20 () Bool)
(declare-fun P21 () Bool)
(declare-fun P22 () Bool)
(declare-fun P23 () Bool)
(declare-fun P24 () Bool)
(declare-fun P25 () Bool)
(declare-fun P26 () Bool)
(declare-fun P27 () Bool)
(declare-fun P28 () Bool)
(declare-fun P29 () Bool)
(declare-fun P30 () Bool)
(declare-fun P31 () Bool)
(declare-fun P32 () Bool)
(declare-fun P33 () Bool)
(declare-fun P34 () Bool)
(declare-fun P35 () Bool)
(declare-fun P36 () Bool)
(declare-fun P37 () Bool)
(declare-fun P38 () Bool)
(declare-fun P39 () Bool)
(assert (let ((?v_277 (f1_2 x28 x11)) (?v_2 (f0_2 x1 x39)) (?v_111 (+ (- (* 13 x11) (* 27 x31)) (* 14 x26))) (?v_46 (f0_2 x11 x14)) (?v_124 (f1_2 x14 x15)) (?v_1 (* 2 x34)) (?v_38 (f1_1 x6)) (?v_101 (f0_1 x6)) (?v_11 (f0_2 x39 x23)) (?v_21 (f1_1 x24))) (let ((?v_35 (f1_2 ?v_21 ?v_11)) (?v_381 (* 18 x31))) (let ((?v_12 (+ (- ?v_381 (* 10 x9)) (* 3 x19))) (?v_6 (f1_1 x23)) (?v_15 (f1_1 ?v_11)) (?v_62 (- (- (* 12 x39) (* 10 x34)) (* 8 x26))) (?v_13 (f1_1 x31)) (?v_141 (+ (- (* 18 x35) (* 22 x19)) (* 19 x1))) (?v_7 (- (- (* 2 x17) (* 28 x26)) (* 9 x30))) (?v_20 (f0_2 x33 x26)) (?v_82 (f0_2 x15 x13))) (let ((?v_123 (f1_2 x13 ?v_15)) (?v_161 (f1_1 x11)) (?v_30 (f0_2 x1 ?v_20)) (?v_8 (f1_1 ?v_124)) (?v_387 (f1_2 x15 x13)) (?v_105 (f1_1 x10)) (?v_90 (f1_2 ?v_6 x35)) (?v_14 (f1_1 x32)) (?v_34 (f0_2 x14 x18)) (?v_386 (f1_2 x13 x6))) (let ((?v_152 (f1_1 ?v_14)) (?v_278 (f1_2 x32 x18)) (?v_78 (f0_2 x38 x34)) (?v_249 (f0_2 x33 x32)) (?v_88 (f0_2 x33 x3)) (?v_31 (f1_2 x22 (f1_2 x12 x11))) (?v_112 (* 11 x23)) (?v_25 (f0_2 x20 x33)) (?v_99 (f0_2 x30 x28)) (?v_26 (f1_2 x25 x29)) (?v_222 (- (- (* 14 x20) (* 25 x12)) (* 28 x24))) (?v_187 (f0_1 x19)) (?v_36 (f0_2 x2 x35)) (?v_421 (f0_1 x11))) (let ((?v_98 (f0_2 ?v_7 ?v_88)) (?v_334 (f1_2 x36 x23)) (?v_117 (f0_1 ?v_7)) (?v_208 (- (- (* 8 x20) (* 18 (f1_1 x26))) (* 18 ?v_62))) (?v_70 (f1_1 x20)) (?v_19 (f1_1 x2)) (?v_104 (f1_1 x1)) (?v_91 (f1_2 x13 x38)) (?v_114 (+ (- (* 13 x19) (* 13 x36)) (* 18 x15))) (?v_128 (f0_1 x26)) (?v_148 (< (f0_2 x32 ?v_99) 23)) (?v_179 (< ?v_101 17))) (let ((?v_314 (< ?v_208 18)) (?v_134 (< ?v_128 4)) (?v_156 (= x7 ?v_104)) (?v_290 (= ?v_114 x22)) (?v_16 (< x11 29)) (?v_191 (< x39 19)) (?v_412 (= x31 ?v_35)) (?v_411 (< ?v_111 1)) (?v_394 (= x21 x32)) (?v_336 (< ?v_386 9)) (?v_368 (= ?v_277 ?v_278)) (?v_214 (< ?v_161 22)) (?v_379 (< x18 24)) (?v_306 (= x0 ?v_152)) (?v_234 (< x20 3)) (?v_339 (< ?v_15 8)) (?v_113 (< (f0_2 x5 x25) 24)) (?v_157 (< ?v_117 13)) (?v_337 (= ?v_98 ?v_70)) (?v_323 (= ?v_104 ?v_105)) (?v_86 (= ?v_8 x20)) (?v_267 (< ?v_14 13)) (?v_146 (< ?v_91 19)) (?v_322 (< (f1_2 ?v_6 x36) 16)) (?v_223 (< ?v_2 15)) (?v_365 (< (f1_2 x17 x5) 8)) (?v_45 (= ?v_36 (f0_1 x39))) (?v_348 (< ?v_187 9)) (?v_42 (< ?v_34 25)) (?v_23 (= ?v_19 (f1_1 ?v_30))) (?v_200 (< x6 7)) (?v_292 (< ?v_123 4)) (?v_66 (= ?v_46 ?v_46)) (?v_119 (< ?v_277 20)) (?v_138 (< ?v_98 0)) (?v_126 (< ?v_82 14)) (?v_264 (< ?v_123 20)) (?v_396 (< ?v_117 28)) (?v_326 (< ?v_105 7)) (?v_353 (< ?v_152 14)) (?v_5 (< ?v_82 15)) (?v_275 (= x33 x19)) (?v_76 (= ?v_30 ?v_31)) (?v_68 (< x0 0)) (?v_219 (= ?v_334 ?v_36)) (?v_195 (< ?v_387 15)) (?v_284 (< ?v_105 29)) (?v_405 (< ?v_14 20)) (?v_109 (< (f1_2 x37 x3) 23)) (?v_164 (< ?v_21 28)) (?v_244 (< (f1_2 x20 x4) 23)) (?v_60 (< ?v_62 10)) (?v_342 (< ?v_38 13)) (?v_363 (= ?v_421 (- (+ (* 13 x31) (* 23 x16)) (* 13 x28)))) (?v_366 (< x28 3)) (?v_186 (= ?v_35 ?v_124)) (?v_297 (= ?v_7 x12)) (?v_395 (< ?v_14 3)) (?v_305 (< ?v_7 29)) (?v_64 (< ?v_114 13)) (?v_51 (= x25 ?v_35)) (?v_262 (< x13 10)) (?v_79 (= x32 ?v_70)) (?v_376 (< x8 18)) (?v_205 (< x10 4)) (?v_266 (< ?v_187 28)) (?v_143 (< x16 8)) (?v_324 (< ?v_78 18)) (?v_224 (= ?v_222 ?v_25)) (?v_159 (< x26 25)) (?v_426 (= x12 ?v_21)) (?v_361 (< ?v_90 3)) (?v_207 (= ?v_70 ?v_12)) (?v_9 (= (- (+ (* 2 x23) (* 18 x8)) (* 25 x7)) (- (+ (* 7 x39) (* 20 x38)) (* 23 x29)))) (?v_294 (< ?v_249 7)) (?v_425 (< x12 0)) (?v_406 (= (f1_2 x12 x23) ?v_13)) (?v_310 (< (f1_1 x28) 23)) (?v_211 (< ?v_208 27)) (?v_17 (not P33))) (let ((?v_304 (not ?v_195)) (?v_227 (not P4)) (?v_172 (not ?v_365)) (?v_333 (not ?v_5)) (?v_181 (not ?v_305)) (?v_32 (not P24)) (?v_94 (not ?v_143)) (?v_233 (not ?v_284)) (?v_71 (not ?v_159)) (?v_317 (not ?v_306)) (?v_236 (not P17)) (?v_96 (not P25)) (?v_413 (not ?v_292)) (?v_41 (not ?v_16)) (?v_149 (not ?v_9)) (?v_360 (not ?v_23)) (?v_59 (not ?v_146)) (?v_225 (not ?v_191)) (?v_422 (not P19)) (?v_407 (not P37)) (?v_69 (not P5)) (?v_142 (not ?v_342)) (?v_55 (not (< x33 3))) (?v_97 (not ?v_51)) (?v_131 (not P31)) (?v_73 (not ?v_406)) (?v_50 (not P14)) (?v_87 (not ?v_425)) (?v_135 (not ?v_79)) (?v_77 (not ?v_234)) (?v_56 (not ?v_219)) (?v_303 (not P29)) (?v_283 (not ?v_412)) (?v_401 (not ?v_376)) (?v_388 (not ?v_60)) (?v_291 (not P18)) (?v_260 (not P22)) (?v_315 (not P12)) (?v_201 (not P10)) (?v_354 (not ?v_66)) (?v_218 (not ?v_275)) (?v_153 (not ?v_68)) (?v_162 (not P0)) (?v_349 (not ?v_76)) (?v_136 (not ?v_148)) (?v_295 (not ?v_323)) (?v_252 (not ?v_262)) (?v_154 (not ?v_411)) (?v_309 (not P1)) (?v_173 (not ?v_113)) (?v_248 (not P3)) (?v_228 (not ?v_396)) (?v_237 (not (< x27 16))) (?v_155 (not ?v_337)) (?v_272 (not P32)) (?v_175 (not ?v_200)) (?v_330 (not ?v_134)) (?v_312 (not ?v_353)) (?v_180 (not ?v_157)) (?v_316 (not ?v_326)) (?v_176 (not ?v_366)) (?v_174 (not ?v_164)) (?v_404 (not ?v_179)) (?v_250 (not ?v_186)) (?v_416 (not ?v_361)) (?v_212 (not P23)) (?v_270 (not ?v_156)) (?v_350 (not ?v_207)) (?v_367 (not ?v_314)) (?v_321 (not P35)) (?v_402 (not ?v_109)) (?v_239 (not P26)) (?v_268 (not P20)) (?v_246 (not ?v_224)) (?v_313 (not (= ?v_35 ?v_101))) (?v_371 (not P38)) (?v_400 (not P2)) (?v_274 (not ?v_244)) (?v_364 (not P7)) (?v_320 (not (< ?v_101 9))) (?v_352 (not ?v_223)) (?v_359 (not ?v_266)) (?v_382 (not (< ?v_7 0))) (?v_343 (not ?v_205)) (?v_397 (not ?v_324)) (?v_345 (not ?v_348)) (?v_384 (not P6)) (?v_420 (not P11)) (?v_427 (not P8)) (?v_428 (not ?v_405)) (?v_95 (f0_1 (+ ?v_112 (* 12 x15) (* 4 x37))))) (let ((?v_346 (not (= x35 ?v_95))) (?v_0 (- (+ (* (- 1) ?v_2) (* 17 (- (+ (* 24 x3) (* 19 x3)) ?v_1))) (* 19 x35)))) (let ((?v_192 (< ?v_0 14)) (?v_194 (+ (- (* (- 15) x21) (* 22 x27)) (* 5 x13)))) (let ((?v_369 (< ?v_194 12))) (let ((?v_65 (not ?v_369)) (?v_18 (- (+ (* (- 6) x34) (* 2 x4)) (* 23 x1)))) (let ((?v_10 (f0_2 ?v_18 (f0_2 x24 ?v_12)))) (let ((?v_100 (< ?v_10 12)) (?v_251 (< ?v_19 (- 11))) (?v_293 (< (f0_2 x35 x6) (- 9))) (?v_43 (+ (* (- 17) x20) (* 24 ?v_111) (* 21 x17)))) (let ((?v_74 (< ?v_43 19))) (let ((?v_4 (not ?v_74)) (?v_22 (= (+ (- (* (- 4) ?v_98) (* 23 x10)) (* 20 x33)) ?v_0)) (?v_393 (- (+ (* (- 2) ?v_8) ?v_1) (* 21 ?v_20)))) (let ((?v_140 (< ?v_393 21))) (let ((?v_40 (not ?v_140)) (?v_75 (< ?v_2 (- 28))) (?v_165 (< (+ (* (- 2) x7) (* 20 x7) (* 4 x20)) 3)) (?v_3 (- (+ (* (- 26) ?v_141) (* 26 ?v_6)) (* 27 x18)))) (let ((?v_378 (< ?v_3 (- 1)))) (let ((?v_170 (not ?v_378)) (?v_53 (< ?v_3 (- 28))) (?v_247 (< (- (+ (* (- 8) x9) (* 5 x30)) (* 6 x14)) 2))) (let ((?v_301 (not ?v_247)) (?v_63 (< ?v_90 (- 29)))) (let ((?v_108 (not ?v_63)) (?v_24 (- (- (* (- 9) ?v_15) (* 14 ?v_13)) (* 7 ?v_101)))) (let ((?v_54 (< ?v_24 14)) (?v_116 (+ (- (* (- 6) x0) (* 25 x35)) (* 8 x34)))) (let ((?v_414 (< ?v_116 (- 25)))) (let ((?v_254 (not ?v_414)) (?v_33 (- (- (* (- 15) x29) (* 11 x34)) (* 10 x27)))) (let ((?v_190 (< ?v_33 (- 26))) (?v_49 (- (+ (* (- 29) x34) (* 8 x35)) (* 16 x36)))) (let ((?v_340 (< ?v_49 19))) (let ((?v_230 (not ?v_340)) (?v_265 (not (< (+ (- (* (- 11) x13) (* 20 x26)) (* 5 x16)) (- 27)))) (?v_61 (< ?v_31 (- 15))) (?v_189 (= ?v_10 ?v_35)) (?v_85 (< (f0_1 x8) (- 26))) (?v_47 (+ (- (* (- 17) x29) (* 20 x12)) (* 4 x35)))) (let ((?v_199 (< ?v_47 (- 2))) (?v_133 (< ?v_7 (- 9)))) (let ((?v_197 (not ?v_133)) (?v_28 (+ (- (* 17 (+ (* (- 21) ?v_12) (* 27 (f1_2 x19 x10)) (* 21 ?v_10))) x32) (* 16 ?v_13)))) (let ((?v_196 (< ?v_28 20))) (let ((?v_37 (not ?v_196)) (?v_240 (< x21 (- 17)))) (let ((?v_299 (not ?v_240)) (?v_48 (< x33 (- 22))) (?v_72 (+ (- (* (- 22) x6) (* 18 ?v_38)) (* 28 x8)))) (let ((?v_198 (= ?v_72 (f0_1 ?v_25))) (?v_44 (= ?v_14 ?v_10)) (?v_221 (< ?v_7 (- 26)))) (let ((?v_115 (not ?v_221)) (?v_409 (= (f0_1 ?v_18) ?v_0))) (let ((?v_257 (not ?v_409)) (?v_92 (+ (- (* (- 20) x39) (* 10 ?v_26)) (* 2 ?v_11)))) (let ((?v_296 (< ?v_92 (- 13))) (?v_318 (not ?v_22)) (?v_52 (< ?v_24 (- 3))) (?v_29 (< ?v_8 (- 3))) (?v_118 (+ (* (- 22) ?v_21) (* 18 ?v_18) (* 4 x28)))) (let ((?v_27 (+ (* 6 ?v_25) (* 20 ?v_26) (* 14 ?v_118)))) (let ((?v_329 (< ?v_27 (- 28))) (?v_151 (f1_2 ?v_27 ?v_28))) (let ((?v_302 (< ?v_151 23))) (let ((?v_168 (not ?v_302)) (?v_57 (- (+ (* (- 7) x14) (* 4 x7)) (* 18 x30))) (?v_107 (f0_1 ?v_24))) (let ((?v_106 (+ (- (* 15 ?v_0) (* 15 ?v_57)) (* 18 ?v_107)))) (let ((?v_202 (= x32 ?v_106)) (?v_258 (< ?v_33 (- 3))) (?v_335 (< x22 (- 11)))) (let ((?v_226 (not ?v_335)) (?v_84 (< ?v_34 (- 9)))) (let ((?v_415 (not ?v_84)) (?v_184 (< ?v_36 (- 8)))) (let ((?v_39 (not ?v_184)) (?v_232 (< (f1_1 x17) (- 5))) (?v_145 (= ?v_43 x20)) (?v_308 (< x23 (- 9)))) (let ((?v_319 (not ?v_308)) (?v_209 (< ?v_278 (- 13))) (?v_58 (< ?v_27 (- 2))) (?v_129 (< ?v_47 19)) (?v_259 (not ?v_48)) (?v_93 (< ?v_49 (- 11))) (?v_372 (< ?v_99 (- 19)))) (let ((?v_89 (not ?v_372)) (?v_81 (< ?v_27 6))) (let ((?v_120 (not ?v_81)) (?v_80 (not ?v_52)) (?v_261 (not ?v_53)) (?v_83 (< ?v_117 (- 19)))) (let ((?v_183 (not ?v_83)) (?v_160 (< x35 (- 16))) (?v_103 (< ?v_57 (- 8)))) (let ((?v_163 (not ?v_103)) (?v_398 (< (f0_2 x9 x1) (- 28)))) (let ((?v_171 (not ?v_398)) (?v_215 (not ?v_61)) (?v_139 (< (f1_2 x21 x2) (- 28)))) (let ((?v_67 (not ?v_139)) (?v_178 (not ?v_58)) (?v_355 (< (- (- (* (- 18) x35) (* 14 x8)) (* 23 x37)) 21))) (let ((?v_125 (not ?v_355)) (?v_231 (< ?v_70 (- 26))) (?v_203 (< ?v_72 10))) (let ((?v_300 (not ?v_203)) (?v_121 (not ?v_75)) (?v_338 (= (f0_1 ?v_57) (f0_1 x16))) (?v_269 (< ?v_78 (- 4))) (?v_418 (not ?v_85)) (?v_182 (< (f1_2 x25 x19) (- 16))) (?v_204 (< ?v_88 (- 24))) (?v_158 (< ?v_222 (- 18))) (?v_423 (< ?v_90 (- 27)))) (let ((?v_122 (not ?v_423)) (?v_169 (= ?v_91 ?v_92))) (let ((?v_150 (not ?v_169)) (?v_253 (not ?v_93)) (?v_167 (< ?v_95 (- 23))) (?v_102 (< ?v_43 (- 17)))) (let ((?v_389 (not ?v_102)) (?v_137 (< ?v_98 (- 4)))) (let ((?v_193 (not ?v_137)) (?v_110 (< ?v_6 (- 4)))) (let ((?v_289 (not ?v_110)) (?v_127 (not (= ?v_106 ?v_107))) (?v_130 (= ?v_107 x2))) (let ((?v_327 (not ?v_130)) (?v_185 (< (+ (* 12 x5) (* 29 x7) ?v_112) (- 26))) (?v_242 (< (- (- (* (- 14) x22) (* 21 x31)) (* 10 ?v_11)) 1)) (?v_144 (< ?v_116 20))) (let ((?v_276 (not ?v_144)) (?v_217 (= x16 ?v_118))) (let ((?v_392 (not ?v_217)) (?v_132 (< (f0_1 x34) (- 22)))) (let ((?v_403 (not ?v_132)) (?v_206 (= ?v_25 (- (- (* (- 9) x15) (* 15 x39)) (* 7 x19))))) (let ((?v_263 (not ?v_206)) (?v_166 (< ?v_128 (- 21))) (?v_385 (< ?v_141 (- 13)))) (let ((?v_147 (not ?v_385)) (?v_332 (< x29 (- 7)))) (let ((?v_235 (not ?v_332)) (?v_220 (< ?v_95 (- 25))) (?v_391 (< ?v_151 22)) (?v_210 (< ?v_107 3)) (?v_241 (not ?v_158)) (?v_188 (< ?v_161 (- 21))) (?v_177 (not ?v_166)) (?v_245 (< x37 (- 16))) (?v_380 (< x15 (- 12)))) (let ((?v_356 (not ?v_380)) (?v_238 (not ?v_160)) (?v_351 (< ?v_101 (- 15)))) (let ((?v_282 (not ?v_351)) (?v_358 (< ?v_107 0))) (let ((?v_287 (not ?v_358)) (?v_243 (< ?v_187 (- 22)))) (let ((?v_373 (not ?v_243)) (?v_279 (not ?v_188)) (?v_271 (< x27 (- 25))) (?v_213 (not ?v_190)) (?v_341 (not ?v_192)) (?v_331 (< ?v_106 19))) (let ((?v_281 (not ?v_331)) (?v_288 (< (f0_2 x10 x20) (- 20))) (?v_216 (= ?v_194 ?v_35))) (let ((?v_390 (not ?v_216)) (?v_307 (not ?v_54)) (?v_325 (not ?v_198)) (?v_280 (not ?v_204)) (?v_229 (not ?v_209)) (?v_417 (= ?v_62 ?v_0)) (?v_255 (< (- (+ (* (- 10) ?v_123) (* 25 (f1_1 x5))) (* 27 x29)) 17)) (?v_285 (< ?v_105 (- 4))) (?v_273 (not ?v_145)) (?v_256 (not ?v_232)) (?v_370 (not ?v_100)) (?v_311 (< ?v_249 (- 5))) (?v_286 (not ?v_258)) (?v_298 (< x8 (- 9))) (?v_419 (not ?v_269)) (?v_328 (< (- (+ (* (- 11) x39) (* 5 x8)) (* 9 x33)) 4)) (?v_362 (not ?v_293))) (let ((?v_377 (not ?v_298)) (?v_344 (not ?v_328)) (?v_383 (not ?v_329)) (?v_357 (not ?v_182)) (?v_375 (< ?v_334 (- 26))) (?v_347 (not ?v_210)) (?v_374 (< ?v_31 (- 26)))) (let ((?v_424 (not ?v_374)) (?v_399 (= (- (- (* (- 14) x16) (* 13 x1)) (* 5 x12)) ?v_393))) (let ((?v_408 (not ?v_399)) (?v_410 (< ?v_161 (- 11)))) (and (and (and (and (and (and (and (and (and (and (and (and (and (and (and (and (and (and (and (and (and (and (and (and (and (and (and (and (and (and (and (and (and (and (and (and (and (and (and (and (and (and (and (and (and (and (and (and (and (and (and (and (and (and (and (and (and (and (and (and (and (and (and (and (and (and (and (and (and (and (and (and (and (and (and (and (and (and (and (and (and (and (and (and (and (and (and (and (and (and (and (and (and (and (and (and (and (and (and (and (and (and (and (and (and (and (and (and (and (and (and (and (and (and (and (and (and (and (and (and (and (and (and (and (and (and (and (and (and (and (and (and (and (and (and (and (and (and (and (and (and (and (and (and (and (and (and (and (and (and (and (and (and (and (and (and (and (and (and (and (and (and (and (and (and (and (and (and (and (and (and (and (and (and (and (and (and (and (and (and (and (and (and (and (and (and (and (and (and (and (and (and (and (and (and (and (and (and (and (and (and (and (and (and (and (and (and (and (and (and (and (and (and (and (and (and (and (and (and (and (and (and (and (and (and (and (and (and (and (and (and (and (and (and (and (and (and (and (and (and (and (and (and (and (and (and (and (and (and (and (and (and (and (and (and (and (and (and (and (and (and (and (and (and (and (and (and (and (and (and (and (and (and (and (and (and (and (and (and (and (and (and (and (and (and (and (and (and (and (and (and (and (and (and (and (and (and (and (and (and (and (and (and (and (and (and (and (and (and (and (and (and (and (and (and (and (and (and (and (and (and (and (and (and (and (and (and (and (and (and (and (and (and (and (and (and (and (and (and (and (and (and (and (and (and (and (and (and (and (and (and (and (and (and (and (and (and (and (and (and (and (and (and (and (and (and (and (and (and (and (and (and (and (and (and (and (and (and (and (and (and (and (and (and (and (and (and (and (and (and (and (and (and (and (and (and (and (and (and (or (or ?v_192 ?v_17) ?v_65) (or (or ?v_100 (not P27)) ?v_251)) (or (or ?v_293 ?v_4) ?v_22)) (or (or ?v_40 ?v_9) ?v_75)) (or (or ?v_165 ?v_304) P23)) (or (or ?v_346 ?v_227) ?v_170)) (or (or ?v_60 P25) ?v_53)) (or (or ?v_172 ?v_5) ?v_4)) (or (or ?v_301 ?v_333) P27)) (or (or ?v_108 ?v_42) ?v_54)) (or (or ?v_45 ?v_254) ?v_190)) (or (or ?v_181 ?v_230) ?v_32)) (or (or ?v_16 ?v_94) ?v_86)) (or (or ?v_9 ?v_265) ?v_233)) (or (or P33 ?v_61) ?v_71)) (or (or ?v_189 ?v_317) (not ?v_363))) (or (or P38 ?v_85) ?v_199)) (or (or ?v_197 ?v_37) ?v_236)) (or (or ?v_395 ?v_299) ?v_96)) (or (or ?v_48 ?v_198) ?v_44)) (or (or ?v_115 ?v_413) ?v_41)) (or (or ?v_17 ?v_257) ?v_23)) (or (or ?v_164 ?v_149) (not ?v_296))) (or (or P15 P1) P18)) (or (or ?v_318 ?v_360) ?v_52)) (or (or (not ?v_29) P16) ?v_329)) (or (or P34 ?v_168) ?v_29)) (or (or ?v_76 ?v_202) ?v_59)) (or (or ?v_32 ?v_258) ?v_226)) (or (or ?v_415 ?v_225) ?v_422)) (or (or ?v_407 (= ?v_35 x15)) ?v_39)) (or (or P31 ?v_69) ?v_37)) (or (or ?v_142 ?v_39) ?v_232)) (or (or ?v_40 ?v_55) ?v_41)) (or (or ?v_97 ?v_42) ?v_131)) (or (or P27 ?v_73) ?v_145)) (or (or ?v_44 ?v_319) ?v_45)) (or (or P32 ?v_50) ?v_209)) (or (or ?v_87 P10) ?v_135)) (or (or ?v_58 ?v_66) (not ?v_129))) (or (or P3 ?v_259) ?v_93)) (or (or ?v_324 ?v_50) ?v_77)) (or (or ?v_56 ?v_29) (< ?v_13 (- 22)))) (or (or (not ?v_426) ?v_113) ?v_51)) (or (or ?v_89 ?v_120) ?v_68)) (or (or ?v_80 ?v_303) ?v_261)) (or (or ?v_64 ?v_183) ?v_54)) (or (or ?v_55 ?v_56) ?v_160)) (or (or ?v_163 ?v_283) ?v_401)) (or (or ?v_58 ?v_59) ?v_171)) (or (or ?v_379 ?v_388) ?v_291)) (or (or ?v_215 ?v_260) ?v_109)) (or (or ?v_211 ?v_315) ?v_201)) (or (or P9 ?v_63) (not ?v_64))) (or (or P12 ?v_65) ?v_354)) (or (or ?v_67 P25) ?v_218)) (or (or ?v_178 ?v_67) ?v_153)) (or (or ?v_125 ?v_69) ?v_231)) (or (or P26 ?v_71) P22)) (or (or ?v_300 ?v_73) ?v_74)) (or (or ?v_22 ?v_121) ?v_162)) (or (or ?v_349 ?v_338) ?v_77)) (or (or ?v_269 ?v_79) ?v_80)) (or (or ?v_81 ?v_156) ?v_23)) (or (or ?v_126 ?v_83) ?v_214)) (or (or P19 ?v_84) ?v_418)) (or (or ?v_119 ?v_182) ?v_86)) (or (or ?v_87 ?v_204) ?v_89)) (or (or ?v_158 ?v_122) ?v_150)) (or (or ?v_65 P7) ?v_253)) (or (or ?v_93 P4) ?v_94)) (or (or (not ?v_167) ?v_389) ?v_96)) (or (or ?v_97 ?v_193) P16)) (or (or ?v_134 ?v_136) ?v_100)) (or (or ?v_289 ?v_179) ?v_138)) (or (or ?v_41 ?v_102) ?v_103)) (or (or ?v_266 P38) P33)) (or (or ?v_295 ?v_29) ?v_127)) (or (or ?v_44 ?v_108) ?v_109)) (or (or ?v_110 P2) ?v_252)) (or (or ?v_44 (not ?v_336)) ?v_327)) (or (or ?v_37 ?v_154) ?v_16)) (or (or ?v_185 ?v_309) ?v_173)) (or (or (not ?v_242) P25) ?v_84)) (or (or P17 ?v_290) ?v_205)) (or (or ?v_248 ?v_115) ?v_276)) (or (or P20 ?v_228) ?v_392)) (or (or ?v_119 P27) ?v_94)) (or (or ?v_120 ?v_121) ?v_122)) (or (or ?v_267 (not ?v_264)) ?v_403)) (or (or ?v_186 ?v_125) ?v_126)) (or (or ?v_4 ?v_127) ?v_207)) (or (or ?v_237 ?v_29) ?v_263)) (or (or ?v_75 ?v_71) ?v_166)) (or (or P9 P5) ?v_244)) (or (or ?v_129 ?v_103) ?v_130)) (or (or ?v_131 ?v_132) ?v_155)) (or (or ?v_272 ?v_175) ?v_133)) (or (or ?v_330 P18) ?v_135)) (or (or ?v_136 ?v_137) ?v_138)) (or (or ?v_139 ?v_140) ?v_147)) (or (or ?v_79 ?v_235) ?v_85)) (or (or ?v_142 ?v_143) ?v_144)) (or (or ?v_145 ?v_144) ?v_146)) (or (or ?v_220 P17) P22)) (or (or ?v_147 ?v_148) ?v_79)) (or (or ?v_149 P30) ?v_150)) (or (or ?v_391 ?v_312) ?v_157)) (or (or ?v_153 ?v_154) ?v_155)) (or (or ?v_156 P9) ?v_180)) (or (or ?v_316 ?v_210) ?v_53)) (or (or ?v_156 ?v_63) P20)) (or (or ?v_241 ?v_159) ?v_160)) (or (or ?v_176 ?v_79) ?v_188)) (or (or ?v_162 ?v_163) ?v_115)) (or (or P17 ?v_174) (not ?v_165))) (or (or P15 ?v_177) ?v_56)) (or (or ?v_245 P2) ?v_167)) (or (or ?v_56 ?v_168) ?v_169)) (or (or ?v_170 P37) ?v_121)) (or (or ?v_171 ?v_172) ?v_173)) (or (or ?v_174 ?v_356) ?v_175)) (or (or ?v_238 ?v_176) ?v_119)) (or (or ?v_177 ?v_126) ?v_178)) (or (or ?v_282 ?v_404) ?v_180)) (or (or ?v_287 ?v_122) ?v_181)) (or (or ?v_48 ?v_83) ?v_182)) (or (or ?v_183 ?v_184) (not ?v_185))) (or (or P27 ?v_250) ?v_405)) (or (or ?v_373 ?v_279) ?v_32)) (or (or ?v_97 ?v_189) P29)) (or (or ?v_96 ?v_271) ?v_213)) (or (or ?v_16 ?v_148) ?v_191)) (or (or ?v_341 ?v_281) (not ?v_288))) (or (or ?v_193 ?v_165) ?v_416)) (or (or ?v_51 ?v_390) ?v_195)) (or (or ?v_196 (not ?v_322)) ?v_307)) (or (or ?v_69 ?v_197) ?v_325)) (or (or ?v_181 ?v_212) ?v_42)) (or (or ?v_199 ?v_200) ?v_201)) (or (or P26 ?v_142) ?v_270)) (or (or ?v_202 ?v_203) ?v_280)) (or (or ?v_205 ?v_206) ?v_37)) (or (or ?v_350 ?v_86) ?v_367)) (or (or ?v_45 ?v_134) P13)) (or (or ?v_229 ?v_206) ?v_417)) (or (or ?v_210 ?v_196) (not ?v_211))) (or (or ?v_212 P39) ?v_203)) (or (or ?v_213 ?v_166) (not ?v_294))) (or (or ?v_214 ?v_157) ?v_215)) (or (or ?v_223 ?v_255) ?v_210)) (or (or ?v_216 ?v_217) ?v_218)) (or (or ?v_173 ?v_321) (not ?v_285))) (or (or ?v_402 ?v_239) ?v_219)) (or (or P15 ?v_37) ?v_220)) (or (or (not ?v_199) ?v_268) ?v_221)) (or (or ?v_246 ?v_186) P16)) (or (or ?v_273 ?v_223) ?v_56)) (or (or ?v_50 ?v_313) ?v_371)) (or (or ?v_224 ?v_225) ?v_226)) (or (or ?v_227 ?v_228) ?v_229)) (or (or ?v_192 ?v_230) ?v_231)) (or (or ?v_232 ?v_130) ?v_233)) (or (or ?v_234 ?v_84) ?v_235)) (or (or ?v_236 ?v_237) ?v_238)) (or (or ?v_256 ?v_239) ?v_240)) (or (or ?v_126 ?v_63) ?v_241)) (or (or ?v_40 P10) ?v_142)) (or (or P11 ?v_81) ?v_154)) (or (or ?v_198 P29) ?v_178)) (or (or ?v_216 P34) ?v_242)) (or (or ?v_400 P32) ?v_370)) (or (or ?v_243 ?v_274) ?v_245)) (or (or ?v_364 ?v_166) ?v_246)) (or (or ?v_247 ?v_248) ?v_50)) (or (or ?v_320 ?v_148) ?v_352)) (or (or ?v_200 ?v_311) ?v_250)) (or (or ?v_144 ?v_251) P19)) (or (or P31 ?v_252) ?v_169)) (or (or ?v_169 ?v_253) ?v_254)) (or (or ?v_255 P29) ?v_256)) (or (or ?v_257 ?v_286) ?v_259)) (or (or ?v_145 ?v_260) ?v_261)) (or (or ?v_66 ?v_201) ?v_155)) (or (or ?v_225 ?v_53) (not ?v_297))) (or (or P28 P16) ?v_262)) (or (or P12 ?v_263) ?v_138)) (or (or ?v_264 ?v_97) ?v_265)) (or (or ?v_100 ?v_170) P31)) (or (or ?v_121 (not (< ?v_95 28))) ?v_359)) (or (or ?v_211 (not ?v_267)) P24)) (or (or (not ?v_119) ?v_268) P12)) (or (or ?v_262 ?v_298) ?v_419)) (or (or ?v_185 ?v_182) ?v_270)) (or (or ?v_271 ?v_175) ?v_220)) (or (or ?v_272 ?v_273) ?v_274)) (or (or ?v_275 ?v_100) ?v_244)) (or (or ?v_276 P12) (not ?v_368))) (or (or ?v_279 ?v_251) ?v_182)) (or (or ?v_280 ?v_48) ?v_281)) (or (or ?v_274 ?v_178) ?v_282)) (or (or ?v_283 ?v_284) ?v_97)) (or (or ?v_210 ?v_56) ?v_285)) (or (or P16 ?v_225) ?v_328)) (or (or ?v_286 ?v_287) ?v_217)) (or (or ?v_242 ?v_288) ?v_221)) (or (or ?v_279 ?v_102) P1)) (or (or ?v_289 ?v_290) P26)) (or (or ?v_291 ?v_53) ?v_292)) (or (or ?v_279 ?v_226) ?v_96)) (or (or ?v_362 ?v_5) ?v_294)) (or (or ?v_295 ?v_190) ?v_296)) (or (or ?v_76 ?v_197) ?v_297)) (or (or ?v_148 ?v_377) ?v_74)) (or (or ?v_299 ?v_382) ?v_300)) (or (or P1 ?v_301) ?v_86)) (or (or ?v_302 ?v_303) ?v_304)) (or (or P14 ?v_177) ?v_305)) (or (or ?v_306 ?v_310) P33)) (or (or ?v_76 ?v_307) ?v_308)) (or (or ?v_51 ?v_309) ?v_149)) (or (or (not ?v_189) ?v_310) ?v_48)) (or (or ?v_311 ?v_343) ?v_127)) (or (or P3 (not P28)) ?v_231)) (or (or ?v_39 ?v_122) ?v_312)) (or (or (not ?v_311) ?v_313) ?v_248)) (or (or P33 ?v_16) ?v_314)) (or (or ?v_67 ?v_63) P22)) (or (or ?v_120 ?v_315) ?v_316)) (or (or P12 ?v_317) ?v_318)) (or (or ?v_71 P39) ?v_319)) (or (or ?v_320 ?v_80) ?v_269)) (or (or ?v_321 ?v_322) ?v_323)) (or (or ?v_397 (not ?v_339)) ?v_325)) (or (or ?v_142 ?v_326) ?v_234)) (or (or P27 ?v_313) ?v_327)) (or (or ?v_64 ?v_67) ?v_219)) (or (or ?v_344 ?v_383) ?v_162)) (or (or ?v_330 ?v_331) ?v_332)) (or (or ?v_164 ?v_201) ?v_357)) (or (or ?v_149 ?v_333) ?v_131)) (or (or ?v_179 ?v_292) ?v_375)) (or (or ?v_303 ?v_347) P25)) (or (or ?v_236 ?v_261) ?v_23)) (or (or ?v_335 ?v_55) ?v_328)) (or (or P30 ?v_232) ?v_213)) (or (or ?v_424 P17) ?v_307)) (or (or ?v_178 ?v_345) ?v_244)) (or (or P4 ?v_329) ?v_251)) (or (or ?v_77 ?v_108) ?v_58)) (or (or P27 ?v_140) ?v_255)) (or (or ?v_336 ?v_303) ?v_281)) (or (or P16 P2) ?v_130)) (or (or ?v_293 ?v_273) ?v_337)) (or (or ?v_241 ?v_384) ?v_338)) (or (or ?v_339 ?v_258) ?v_263)) (or (or ?v_248 ?v_289) P15)) (or (or ?v_210 ?v_143) ?v_340)) (or (or ?v_341 ?v_190) ?v_342)) (or (or P25 ?v_108) P7)) (or (or ?v_174 ?v_343) ?v_314)) (or (or (not ?v_44) ?v_155) ?v_344)) (or (or ?v_345 ?v_158) ?v_339)) (or (or P27 P26) ?v_232)) (or (or ?v_5 (not P21)) ?v_346)) (or (or ?v_347 ?v_341) ?v_247)) (or (or ?v_225 ?v_81) ?v_348)) (or (or ?v_176 ?v_349) ?v_9)) (or (or ?v_16 ?v_350) P12)) (or (or ?v_39 ?v_253) ?v_135)) (or (or P14 ?v_351) ?v_352)) (or (or ?v_214 ?v_353) ?v_154)) (or (or ?v_354 ?v_420) ?v_213)) (or (or ?v_190 ?v_355) ?v_257)) (or (or ?v_257 ?v_356) ?v_325)) (or (or ?v_59 ?v_216) ?v_308)) (or (or ?v_66 P2) ?v_96)) (or (or ?v_307 ?v_357) ?v_158)) (or (or ?v_189 P11) ?v_53)) (or (or ?v_23 ?v_217) ?v_358)) (or (or ?v_217 (not ?v_126)) ?v_359)) (or (or ?v_244 ?v_320) ?v_303)) (or (or P37 ?v_360) ?v_361)) (or (or ?v_160 ?v_184) ?v_102)) (or (or ?v_332 ?v_362) ?v_307)) (or (or ?v_306 ?v_96) ?v_363)) (or (or P30 ?v_279) ?v_332)) (or (or ?v_218 ?v_213) ?v_345)) (or (or ?v_180 P4) ?v_170)) (or (or ?v_224 ?v_242) ?v_17)) (or (or ?v_73 ?v_219) ?v_299)) (or (or ?v_364 ?v_228) ?v_243)) (or (or ?v_365 ?v_366) ?v_290)) (or (or ?v_61 ?v_363) ?v_284)) (or (or ?v_146 ?v_142) ?v_367)) (or (or ?v_253 ?v_291) ?v_64)) (or (or ?v_368 ?v_269) ?v_259)) (or (or ?v_80 ?v_228) ?v_369)) (or (or ?v_370 ?v_135) ?v_204)) (or (or ?v_276 ?v_252) ?v_195)) (or (or ?v_371 ?v_372) ?v_79)) (or (or ?v_127 ?v_74) P21)) (or (or ?v_316 ?v_258) ?v_168)) (or (or ?v_300 ?v_373) ?v_64)) (or (or ?v_374 ?v_346) ?v_427)) (or (or ?v_270 ?v_97) ?v_126)) (or (or ?v_375 ?v_240) P21)) (or (or ?v_275 ?v_376) ?v_89)) (or (or P17 ?v_317) ?v_304)) (or (or ?v_377 ?v_378) (not ?v_255))) (or (or ?v_379 ?v_241) ?v_380)) (or (or ?v_32 ?v_79) ?v_376)) (or (or ?v_374 ?v_331) ?v_16)) (or (or ?v_71 (not (< (+ (- ?v_381 (* 29 x2)) (* 21 x0)) (- 15)))) ?v_374)) (or (or ?v_351 (not ?v_271)) ?v_140)) (or (or ?v_382 ?v_205) ?v_344)) (or (or ?v_383 ?v_384) P29)) (or (or ?v_198 ?v_385) ?v_273)) (or (or ?v_333 ?v_210) ?v_342)) (or (or (not (= ?v_386 ?v_387)) (not P36)) ?v_127)) (or (or (not ?v_379) ?v_129) ?v_259)) (or (or ?v_388 P28) ?v_228)) (or (or ?v_348 ?v_86) ?v_270)) (or (or ?v_189 ?v_97) ?v_71)) (or (or ?v_329 ?v_186) ?v_385)) (or (or ?v_136 ?v_280) ?v_173)) (or (or P24 ?v_353) ?v_288)) (or (or ?v_389 ?v_390) ?v_66)) (or (or ?v_391 ?v_195) ?v_157)) (or (or ?v_352 ?v_242) ?v_375)) (or (or ?v_355 ?v_267) ?v_167)) (or (or ?v_354 ?v_288) ?v_392)) (or (or ?v_298 ?v_32) ?v_202)) (or (or ?v_181 ?v_331) ?v_56)) (or (or (not ?v_394) ?v_79) ?v_229)) (or (or P37 ?v_50) ?v_147)) (or (or ?v_235 ?v_359) P17)) (or (or (not ?v_375) ?v_270) ?v_408)) (or (or ?v_178 P29) ?v_197)) (or (or ?v_394 ?v_160) ?v_395)) (or (or ?v_388 ?v_321) ?v_221)) (or (or ?v_396 ?v_94) ?v_397)) (or (or ?v_251 ?v_103) ?v_96)) (or (or ?v_135 ?v_283) ?v_181)) (or (or ?v_153 ?v_61) ?v_250)) (or (or ?v_379 ?v_341) ?v_365)) (or (or ?v_103 ?v_398) ?v_399)) (or (or ?v_400 ?v_264) ?v_373)) (or (or ?v_136 ?v_76) ?v_399)) (or (or P39 ?v_160) ?v_401)) (or (or P9 ?v_197) ?v_402)) (or (or ?v_324 ?v_190) P31)) (or (or ?v_81 ?v_252) ?v_65)) (or (or ?v_147 ?v_210) ?v_399)) (or (or ?v_94 ?v_130) ?v_403)) (or (or (not ?v_410) ?v_150) ?v_371)) (or (or ?v_260 ?v_404) ?v_84)) (or (or P12 ?v_380) ?v_374)) (or (or ?v_309 ?v_352) ?v_428)) (or (or ?v_298 ?v_81) ?v_406)) (or (or ?v_207 ?v_343) ?v_247)) (or (or P10 ?v_288) ?v_367)) (or (or (not ?v_138) P26) P38)) (or (or ?v_307 ?v_29) ?v_407)) (or (or ?v_171 ?v_155) P30)) (or (or ?v_369 ?v_264) ?v_210)) (or (or (not ?v_45) ?v_240) ?v_408)) (or (or ?v_409 ?v_410) ?v_411)) (or (or ?v_250 ?v_65) ?v_216)) (or (or ?v_63 ?v_349) P31)) (or (or ?v_412 ?v_413) ?v_414)) (or (or ?v_245 ?v_215) ?v_247)) (or (or ?v_51 (< (- (- (* (- 23) (f0_2 x18 x25)) (* 13 ?v_334)) (* 23 (f1_1 ?v_43))) 9)) ?v_276)) (or (or ?v_240 ?v_415) ?v_60)) (or (or ?v_119 ?v_248) P12)) (or (or ?v_45 P5) ?v_263)) (or (or ?v_274 ?v_416) ?v_210)) (or (or ?v_319 ?v_242) P17)) (or (or ?v_417 ?v_323) ?v_206)) (or (or P17 (not ?v_417)) ?v_149)) (or (or ?v_175 ?v_96) ?v_190)) (or (or ?v_392 ?v_97) P22)) (or (or ?v_267 ?v_418) ?v_273)) (or (or ?v_347 ?v_302) ?v_388)) (or (or ?v_373 P19) ?v_261)) (or (or ?v_174 ?v_159) ?v_239)) (or (or ?v_300 ?v_419) P34)) (or (or ?v_420 ?v_329) ?v_229)) (or (or ?v_29 P32) ?v_229)) (or (or (= (- (- (* (- 24) x22) (* 27 ?v_421)) (* 3 (f0_1 (f0_1 x12)))) ?v_70) ?v_61) ?v_360)) (or (or ?v_77 ?v_409) ?v_413)) (or (or ?v_227 ?v_186) ?v_103)) (or (or ?v_136 ?v_422) ?v_401)) (or (or ?v_159 ?v_279) ?v_241)) (or (or ?v_163 ?v_286) ?v_183)) (or (or ?v_209 ?v_423) ?v_424)) (or (or ?v_276 ?v_176) ?v_424)) (or (or ?v_397 ?v_60) ?v_425)) (or (or ?v_426 ?v_265) ?v_427)) (or (or ?v_273 P15) ?v_428)))))))))))))))))))))))))))))))))))))))))))))))))))))))))))))))))))))))))))))))
(check-sat)
(exit)
